objective value:                                    0
lambda[1,33]*                                       7 	(obj:0)
lambda[1,41]*                                       1 	(obj:0)
lambda[0,29]*                                       3 	(obj:0)
lambda[0,32]*                                       3 	(obj:0)
lambda[1,52]*                                       1 	(obj:0)
lambda[0,33]*                                       4 	(obj:0)
